objective value:                   -0.999783461826964
h-1,12                                           0.01 	(obj:0)
h-1,13                                           0.01 	(obj:0)
h-1,14                                           0.01 	(obj:0)
h-1,15                                           0.01 	(obj:0)
h-1,49                                           0.01 	(obj:0)
h-1,50                                           0.01 	(obj:0)
h-1,59                                           0.01 	(obj:0)
h-1,60                                           0.01 	(obj:0)
h-1,87                                           0.01 	(obj:0)
h-1,88                                           0.01 	(obj:0)
h-1,89                                           0.01 	(obj:0)
h-1,109                                          0.01 	(obj:0)
h-1,110                                          0.01 	(obj:0)
h-1,114                                          0.01 	(obj:0)
h-1,116                                          0.01 	(obj:0)
h-1,117                                          0.01 	(obj:0)
h-1,128                             0.139019613862038 	(obj:0)
h-1,129                             0.986078431606293 	(obj:0)
h-1,130                             0.417450984716415 	(obj:0)
h-1,134                                          0.01 	(obj:0)
h-1,135                                          0.01 	(obj:0)
h-1,138                                          0.01 	(obj:0)
h-1,139                                          0.01 	(obj:0)
h-1,143                                          0.01 	(obj:0)
h-1,156                             0.331176480054855 	(obj:0)
h-1,157                             0.978235294818878 	(obj:0)
h-1,158                             0.311568638086319 	(obj:0)
h-1,162                                          0.01 	(obj:0)
h-1,163                                          0.01 	(obj:0)
h-1,164                                          0.01 	(obj:0)
h-1,165                                          0.01 	(obj:0)
h-1,166                                          0.01 	(obj:0)
h-1,167                                          0.01 	(obj:0)
h-1,171                                          0.01 	(obj:0)
h-1,174                                          0.01 	(obj:0)
h-1,175                                          0.01 	(obj:0)
h-1,184                             0.519411792755127 	(obj:0)
h-1,185                             0.935098042488098 	(obj:0)
h-1,188                                          0.01 	(obj:0)
h-1,190                                          0.01 	(obj:0)
h-1,192                                          0.01 	(obj:0)
h-1,197                                          0.01 	(obj:0)
h-1,198                                          0.01 	(obj:0)
h-1,199                                          0.01 	(obj:0)
h-1,202                                          0.01 	(obj:0)
h-1,203                                          0.01 	(obj:0)
h-1,206                                          0.01 	(obj:0)
h-1,208                                          0.01 	(obj:0)
h-1,210                                          0.01 	(obj:0)
h-1,211                             0.166470592617989 	(obj:0)
h-1,212                              0.96686274766922 	(obj:0)
h-1,213                             0.578235318660736 	(obj:0)
h-1,216                                          0.01 	(obj:0)
h-1,219                                          0.01 	(obj:0)
h-1,223                                          0.01 	(obj:0)
h-1,225                                          0.01 	(obj:0)
h-1,226                                          0.01 	(obj:0)
h-1,227                                          0.01 	(obj:0)
h-1,228                                          0.01 	(obj:0)
h-1,233                                          0.01 	(obj:0)
h-1,237                                          0.01 	(obj:0)
h-1,239                             0.319411774873734 	(obj:0)
h-1,240                             0.986078431606293 	(obj:0)
h-1,241                              0.25705882370472 	(obj:0)
h-1,244                                          0.01 	(obj:0)
h-1,253                                          0.01 	(obj:0)
h-1,254                                          0.01 	(obj:0)
h-1,255                                          0.01 	(obj:0)
h-1,256                                          0.01 	(obj:0)
h-1,257                                          0.01 	(obj:0)
h-1,260                                          0.01 	(obj:0)
h-1,261                                          0.01 	(obj:0)
h-1,264                                          0.01 	(obj:0)
h-1,265                                          0.01 	(obj:0)
h-1,267                             0.782156875133514 	(obj:0)
h-1,268                             0.884509811401367 	(obj:0)
h-1,269                            0.0531372560560703 	(obj:0)
h-1,272                                          0.01 	(obj:0)
h-1,282                                          0.01 	(obj:0)
h-1,283                                          0.01 	(obj:0)
h-1,284                                          0.01 	(obj:0)
h-1,285                                          0.01 	(obj:0)
h-1,288                                          0.01 	(obj:0)
h-1,289                                          0.01 	(obj:0)
h-1,292                                          0.01 	(obj:0)
h-1,293                                          0.01 	(obj:0)
h-1,294                             0.115490203499794 	(obj:0)
h-1,295                                             1 	(obj:0)
h-1,296                             0.857058832645416 	(obj:0)
h-1,297                                          0.01 	(obj:0)
h-1,298                                          0.01 	(obj:0)
h-1,300                                          0.01 	(obj:0)
h-1,301                                          0.01 	(obj:0)
h-1,302                                          0.01 	(obj:0)
h-1,310                                          0.01 	(obj:0)
h-1,311                                          0.01 	(obj:0)
h-1,313                                          0.01 	(obj:0)
h-1,314                                          0.01 	(obj:0)
h-1,315                                          0.01 	(obj:0)
h-1,316                                          0.01 	(obj:0)
h-1,317                                          0.01 	(obj:0)
h-1,318                                          0.01 	(obj:0)
h-1,319                                          0.01 	(obj:0)
h-1,320                                          0.01 	(obj:0)
h-1,322                             0.362549027204514 	(obj:0)
h-1,323                             0.986078431606293 	(obj:0)
h-1,324                             0.774705896377563 	(obj:0)
h-1,325                                          0.01 	(obj:0)
h-1,326                                          0.01 	(obj:0)
h-1,327                                          0.01 	(obj:0)
h-1,328                                          0.01 	(obj:0)
h-1,329                                          0.01 	(obj:0)
h-1,330                                          0.01 	(obj:0)
h-1,335                                          0.01 	(obj:0)
h-1,338                                          0.01 	(obj:0)
h-1,339                                          0.01 	(obj:0)
h-1,341                                          0.01 	(obj:0)
h-1,342                                          0.01 	(obj:0)
h-1,343                                          0.01 	(obj:0)
h-1,344                                          0.01 	(obj:0)
h-1,345                                          0.01 	(obj:0)
h-1,347                                          0.01 	(obj:0)
h-1,348                                          0.01 	(obj:0)
h-1,350                             0.539019634723663 	(obj:0)
h-1,351                                             1 	(obj:0)
h-1,352                             0.311960796117783 	(obj:0)
h-1,353                                          0.01 	(obj:0)
h-1,354                                          0.01 	(obj:0)
h-1,355                                          0.01 	(obj:0)
h-1,356                                          0.01 	(obj:0)
h-1,357                                          0.01 	(obj:0)
h-1,361                                          0.01 	(obj:0)
h-1,362                                          0.01 	(obj:0)
h-1,365                                          0.01 	(obj:0)
h-1,366                                          0.01 	(obj:0)
h-1,367                                          0.01 	(obj:0)
h-1,369                                          0.01 	(obj:0)
h-1,370                                          0.01 	(obj:0)
h-1,371                                          0.01 	(obj:0)
h-1,372                                          0.01 	(obj:0)
h-1,373                                          0.01 	(obj:0)
h-1,374                                          0.01 	(obj:0)
h-1,377                             0.213529413342476 	(obj:0)
h-1,378                             0.919411768913269 	(obj:0)
h-1,379                             0.813921580314636 	(obj:0)
h-1,380                            0.0413725508749485 	(obj:0)
h-1,381                                          0.01 	(obj:0)
h-1,382                                          0.01 	(obj:0)
h-1,383                                          0.01 	(obj:0)
h-1,384                                          0.01 	(obj:0)
h-1,385                                          0.01 	(obj:0)
h-1,386                                          0.01 	(obj:0)
h-1,392                                          0.01 	(obj:0)
h-1,393                                          0.01 	(obj:0)
h-1,395                                          0.01 	(obj:0)
h-1,396                                          0.01 	(obj:0)
h-1,397                                          0.01 	(obj:0)
h-1,398                                          0.01 	(obj:0)
h-1,399                                          0.01 	(obj:0)
h-1,400                                          0.01 	(obj:0)
h-1,401                                          0.01 	(obj:0)
h-1,405                             0.476274510622025 	(obj:0)
h-1,406                                          0.99 	(obj:0)
h-1,407                             0.657058844566345 	(obj:0)
h-1,408                                          0.01 	(obj:0)
h-1,409                                          0.01 	(obj:0)
h-1,410                                          0.01 	(obj:0)
h-1,411                                          0.01 	(obj:0)
h-1,412                                          0.01 	(obj:0)
h-1,413                                          0.01 	(obj:0)
h-1,414                                          0.01 	(obj:0)
h-1,415                                          0.01 	(obj:0)
h-1,421                                          0.01 	(obj:0)
h-1,422                                          0.01 	(obj:0)
h-1,423                                          0.01 	(obj:0)
h-1,424                                          0.01 	(obj:0)
h-1,425                                          0.01 	(obj:0)
h-1,426                                          0.01 	(obj:0)
h-1,427                                          0.01 	(obj:0)
h-1,428                                          0.01 	(obj:0)
h-1,429                                          0.01 	(obj:0)
h-1,430                                          0.01 	(obj:0)
h-1,431                                          0.01 	(obj:0)
h-1,432                                          0.01 	(obj:0)
h-1,433                             0.660588254928589 	(obj:0)
h-1,434                                             1 	(obj:0)
h-1,435                             0.327647069692612 	(obj:0)
h-1,436                                          0.01 	(obj:0)
h-1,437                                          0.01 	(obj:0)
h-1,438                                          0.01 	(obj:0)
h-1,439                                          0.01 	(obj:0)
h-1,440                                          0.01 	(obj:0)
h-1,441                                          0.01 	(obj:0)
h-1,442                                          0.01 	(obj:0)
h-1,443                                          0.01 	(obj:0)
h-1,444                                          0.01 	(obj:0)
h-1,450                                          0.01 	(obj:0)
h-1,452                                          0.01 	(obj:0)
h-1,453                                          0.01 	(obj:0)
h-1,454                                          0.01 	(obj:0)
h-1,455                                          0.01 	(obj:0)
h-1,456                                          0.01 	(obj:0)
h-1,457                                          0.01 	(obj:0)
h-1,458                                          0.01 	(obj:0)
h-1,459                                          0.01 	(obj:0)
h-1,460                             0.104117648899555 	(obj:0)
h-1,461                             0.919803926944733 	(obj:0)
h-1,462                             0.853137264251709 	(obj:0)
h-1,463                                          0.01 	(obj:0)
h-1,464                                          0.01 	(obj:0)
h-1,465                                          0.01 	(obj:0)
h-1,466                                          0.01 	(obj:0)
h-1,467                                          0.01 	(obj:0)
h-1,468                                          0.01 	(obj:0)
h-1,469                                          0.01 	(obj:0)
h-1,470                                          0.01 	(obj:0)
h-1,471                                          0.01 	(obj:0)
h-1,475                                          0.01 	(obj:0)
h-1,477                                          0.01 	(obj:0)
h-1,482                                          0.01 	(obj:0)
h-1,483                                          0.01 	(obj:0)
h-1,484                                          0.01 	(obj:0)
h-1,485                                          0.01 	(obj:0)
h-1,486                                          0.01 	(obj:0)
h-1,487                                          0.01 	(obj:0)
h-1,488                             0.480588237047195 	(obj:0)
h-1,489                                             1 	(obj:0)
h-1,490                             0.633529434204102 	(obj:0)
h-1,491                                          0.01 	(obj:0)
h-1,492                                          0.01 	(obj:0)
h-1,493                                          0.01 	(obj:0)
h-1,494                                          0.01 	(obj:0)
h-1,495                                          0.01 	(obj:0)
h-1,496                                          0.01 	(obj:0)
h-1,497                                          0.01 	(obj:0)
h-1,499                                          0.01 	(obj:0)
h-1,503                                          0.01 	(obj:0)
h-1,514                                          0.01 	(obj:0)
h-1,515                                          0.01 	(obj:0)
h-1,516                             0.602156887054443 	(obj:0)
h-1,517                                             1 	(obj:0)
h-1,518                             0.566862771511078 	(obj:0)
h-1,519                                          0.01 	(obj:0)
h-1,520                                          0.01 	(obj:0)
h-1,531                                          0.01 	(obj:0)
h-1,533                                          0.01 	(obj:0)
h-1,543                                          0.01 	(obj:0)
h-1,544                             0.884117653369904 	(obj:0)
h-1,545                                             1 	(obj:0)
h-1,546                             0.268823543787003 	(obj:0)
h-1,547                                          0.01 	(obj:0)
h-1,571                             0.229215686917305 	(obj:0)
h-1,572                             0.994313726425171 	(obj:0)
h-1,573                                             1 	(obj:0)
h-1,574                             0.268823543787003 	(obj:0)
h-1,576                                          0.01 	(obj:0)
h-1,599                             0.542941203117371 	(obj:0)
h-1,600                             0.986078431606293 	(obj:0)
h-1,601                             0.793921580314636 	(obj:0)
h-1,602                            0.0217647061124444 	(obj:0)
h-1,604                                          0.01 	(obj:0)
h-1,613                                          0.01 	(obj:0)
h-1,618                                          0.01 	(obj:0)
h-1,625                                          0.01 	(obj:0)
h-1,626                            0.0292156876623631 	(obj:0)
h-1,627                             0.833137264251709 	(obj:0)
h-1,628                             0.986078431606293 	(obj:0)
h-1,629                             0.464509805440903 	(obj:0)
h-1,640                                          0.01 	(obj:0)
h-1,648                                          0.01 	(obj:0)
h-1,649                                          0.01 	(obj:0)
h-1,650                                          0.01 	(obj:0)
h-1,654                           0.00960784383118152 	(obj:0)
h-1,655                             0.766470601558685 	(obj:0)
h-1,656                             0.680196096897125 	(obj:0)
h-1,657                            0.0292156876623631 	(obj:0)
h-1,663                                          0.01 	(obj:0)
h-1,667                                          0.01 	(obj:0)
h-1,668                                          0.01 	(obj:0)
h-1,670                                          0.01 	(obj:0)
h-1,676                                          0.01 	(obj:0)
h-1,677                                          0.01 	(obj:0)
h-1,696                                          0.01 	(obj:0)
h-1,697                                          0.01 	(obj:0)
h-1,698                                          0.01 	(obj:0)
h-1,702                                          0.01 	(obj:0)
h-1,704                                          0.01 	(obj:0)
h-1,705                                          0.01 	(obj:0)
h-1,707                                          0.01 	(obj:0)
h-1,708                                          0.01 	(obj:0)
h-1,709                                          0.01 	(obj:0)
h-1,716                                          0.01 	(obj:0)
h-1,717                                          0.01 	(obj:0)
h-1,718                                          0.01 	(obj:0)
h-1,719                                          0.01 	(obj:0)
h-1,720                                          0.01 	(obj:0)
h-1,721                                          0.01 	(obj:0)
h-1,722                                          0.01 	(obj:0)
h-1,723                                          0.01 	(obj:0)
h-1,724                                          0.01 	(obj:0)
h-1,725                                          0.01 	(obj:0)
h-1,732                                          0.01 	(obj:0)
h-1,733                                          0.01 	(obj:0)
h-1,735                                          0.01 	(obj:0)
h-1,736                                          0.01 	(obj:0)
h-1,737                                          0.01 	(obj:0)
h-1,738                                          0.01 	(obj:0)
h-1,739                                          0.01 	(obj:0)
h-1,742                                          0.01 	(obj:0)
h-1,743                                          0.01 	(obj:0)
h-1,745                          6.06822118758708e-05 	(obj:0)
h-1,746                                          0.01 	(obj:0)
h-1,748                                          0.01 	(obj:0)
h-1,749                                          0.01 	(obj:0)
h-1,751                                          0.01 	(obj:0)
h-1,752                                          0.01 	(obj:0)
h-1,763                                          0.01 	(obj:0)
h-1,765                                          0.01 	(obj:0)
h-1,768                                          0.01 	(obj:0)
h-1,769                                          0.01 	(obj:0)
h-1,770                                          0.01 	(obj:0)
h-1,771                                          0.01 	(obj:0)
h-1,772                                          0.01 	(obj:0)
h-1,773                                          0.01 	(obj:0)
z0,0                                -11.5417404763411 	(obj:0)
a0,0                             4.69030946819042e-09 	(obj:0)
z0,1                                -22.1793600904039 	(obj:0)
a0,1                             4.05748166711255e-07 	(obj:0)
z0,2                                 22.8900594326964 	(obj:0)
a0,2                                0.999999817648413 	(obj:0)
z0,3                                 20.0905080069871 	(obj:0)
a0,3                                0.999999735642928 	(obj:0)
z0,4                                -12.9851262114406 	(obj:0)
z1,0                                -2.81420061703855 	(obj:0)
a1,0                               0.0565616091077733 	(obj:0)
z1,1                                 3.80635304151452 	(obj:0)
a1,1                                0.978254287694748 	(obj:0)
z1,2                                -2.35406711592251 	(obj:0)
a1,2                               0.0867430567822687 	(obj:0)
z1,3                                -1.47978606529587 	(obj:0)
a1,3                                0.185459790785365 	(obj:0)
z1,4                                -1.60987520681471 	(obj:0)
a1,4                                0.166606185320521 	(obj:0)
z2,0                                -4.80691183089721 	(obj:0)
a2,0                              0.00810684305607398 	(obj:0)
z2,1                                  1.5511327080588 	(obj:0)
a2,1                                0.825077292558486 	(obj:0)
z2,2                                -4.57201234417877 	(obj:0)
a2,2                               0.0102314105690585 	(obj:0)
z2,3                                 2.67484946149338 	(obj:0)
a2,3                                0.935526038867007 	(obj:0)
z2,4                                 0.87799954999364 	(obj:0)
a2,4                                0.706407182366918 	(obj:0)
z3,0                                -9.85348989382032 	(obj:0)
a3,0                             5.17437127611031e-05 	(obj:0)
z3,1                                 9.27060490575416 	(obj:0)
a3,1                                0.999905856636723 	(obj:-1)
z3,2                                -9.01186001236943 	(obj:0)
a3,2                             0.000122394809759281 	(obj:1)
z3,3                                -21.0497933747033 	(obj:0)
z3,4                                 -18.002017143558 	(obj:0)
a3,4                             1.51600538987409e-08 	(obj:0)
z3,5                                -23.6598230506681 	(obj:0)
z3,6                                -4.92006871429741 	(obj:0)
a3,6                               0.0072457448980099 	(obj:0)
z3,7                                -8.40529297992205 	(obj:0)
a3,7                             0.000222253892996281 	(obj:0)
z3,8                                -5.53387340055513 	(obj:0)
a3,8                              0.00393507947085776 	(obj:0)
z3,9                                -14.3036911822238 	(obj:0)
a3,9                             6.13737249456105e-07 	(obj:0)
